Route #1: 20 22
Route #2: 67 62 63
Route #3: 31 35 37 38 39 0 18 19 16 14 12 0 86 85 81 78 77
Route #4: 24 27 30 29 33 6 0 91 88 84 82 83 90
Route #5: 7 98 95 3 4 89 0 59 56 58 60 44 0 52 50 51 45 42 41 43 47 48
Route #6: 5 2 75 93 0 32 34 36 28 26 23 0 9 13 15 17
Route #7: 1 99 100 97 92 94 0 76 71 70 73 79 80 96
Route #8: 74 72 61 64 66 69 0 68 65 55 54 53 49 0 46 40 57 87 0 21 25 11 10 8
Cost: 14774
Optimal: True
